100
1000
200
200
199
199
199
197
196
196
196
195
194
193
193
193
192
192
191
190
190
190
190
189
188
187
185
185
184
184
182
182
181
180
180
180
180
179
179
178
178
178
178
178
177
177
176
175
173
172
172
172
172
171
171
171
171
170
170
170
170
170
169
169
169
169
168
167
167
167
166
165
165
165
165
164
164
163
163
163
162
162
162
161
159
157
157
156
156
156
154
153
153
152
152
152
152
151
151
151
150
150
